words_hard_train/3024.qaiger
aag 73 15 0 1 58
2
4
8
12
16
20
24
32
40
48
56
64
72
76
104
147
6 3 5
10 6 9
14 10 13
18 14 17
22 18 21
26 22 25
28 23 24
30 27 29
34 30 33
36 19 20
38 23 37
42 38 41
44 15 16
46 19 45
50 46 49
52 11 12
54 15 53
58 54 57
60 7 8
62 11 61
66 62 65
68 2 4
70 7 69
74 70 73
78 77 2
80 78 72
82 75 81
84 83 64
86 67 85
88 87 56
90 59 89
92 91 48
94 51 93
96 95 40
98 43 97
100 99 32
102 35 101
106 103 105
108 102 104
110 107 109
112 94 41
114 113 97
116 86 57
118 117 89
120 79 73
122 121 81
124 82 65
126 125 85
128 123 127
130 118 129
132 90 49
134 133 93
136 131 135
138 114 137
140 98 33
142 141 101
144 139 143
146 111 144
i0 1 x2[0]
i1 1 x2[1]
i2 1 x2[2]
i3 1 x2[3]
i4 1 x2[4]
i5 1 x2[5]
i6 1 x2[6]
i7 2 y2[6]
i8 2 y2[5]
i9 2 y2[4]
i10 2 y2[3]
i11 2 y2[2]
i12 2 y2[1]
i13 2 y2[0]
i14 2 y2[7]
o0 bv[0]
c
simplified
  >=
    subtract
      xor
        unary minus
          1 x2
        2 y2
      1 x2
    -86
