words_hard_train/3024.qaiger.qdimacs
p cnf 73 175
a 1 2 4 6 8 10 12 0
e 3 5 7 9 11 13 14 15 16 17 18 19 20 21 22 23 24 25 26 27 28 29 30 31 32 33 34 35 36 37 38 39 40 41 42 43 44 45 46 47 48 49 50 51 52 53 54 55 56 57 58 59 60 61 62 63 64 65 66 67 68 69 70 71 72 73 0
1 2 3 0
-1 -3 0
-2 -3 0
-3 4 5 0
3 -5 0
-4 -5 0
-5 6 7 0
5 -7 0
-6 -7 0
-7 8 9 0
7 -9 0
-8 -9 0
-9 10 11 0
9 -11 0
-10 -11 0
-11 12 13 0
11 -13 0
-12 -13 0
11 -12 14 0
-11 -14 0
12 -14 0
13 14 15 0
-13 -15 0
-14 -15 0
-15 16 17 0
15 -17 0
-16 -17 0
9 -10 18 0
-9 -18 0
10 -18 0
11 18 19 0
-11 -19 0
-18 -19 0
-19 20 21 0
19 -21 0
-20 -21 0
7 -8 22 0
-7 -22 0
8 -22 0
9 22 23 0
-9 -23 0
-22 -23 0
-23 24 25 0
23 -25 0
-24 -25 0
5 -6 26 0
-5 -26 0
6 -26 0
7 26 27 0
-7 -27 0
-26 -27 0
-27 28 29 0
27 -29 0
-28 -29 0
3 -4 30 0
-3 -30 0
4 -30 0
5 30 31 0
-5 -31 0
-30 -31 0
-31 32 33 0
31 -33 0
-32 -33 0
-1 -2 34 0
1 -34 0
2 -34 0
3 34 35 0
-3 -35 0
-34 -35 0
-35 36 37 0
35 -37 0
-36 -37 0
38 -1 39 0
-38 -39 0
1 -39 0
-39 -36 40 0
39 -40 0
36 -40 0
37 40 41 0
-37 -41 0
-40 -41 0
41 -32 42 0
-41 -42 0
32 -42 0
33 42 43 0
-33 -43 0
-42 -43 0
43 -28 44 0
-43 -44 0
28 -44 0
29 44 45 0
-29 -45 0
-44 -45 0
45 -24 46 0
-45 -46 0
24 -46 0
25 46 47 0
-25 -47 0
-46 -47 0
47 -20 48 0
-47 -48 0
20 -48 0
21 48 49 0
-21 -49 0
-48 -49 0
49 -16 50 0
-49 -50 0
16 -50 0
17 50 51 0
-17 -51 0
-50 -51 0
51 52 53 0
-51 -53 0
-52 -53 0
-51 -52 54 0
51 -54 0
52 -54 0
53 54 55 0
-53 -55 0
-54 -55 0
-47 20 56 0
47 -56 0
-20 -56 0
56 48 57 0
-56 -57 0
-48 -57 0
-43 28 58 0
43 -58 0
-28 -58 0
58 44 59 0
-58 -59 0
-44 -59 0
39 36 60 0
-39 -60 0
-36 -60 0
60 40 61 0
-60 -61 0
-40 -61 0
-41 32 62 0
41 -62 0
-32 -62 0
62 42 63 0
-62 -63 0
-42 -63 0
61 63 64 0
-61 -64 0
-63 -64 0
-59 64 65 0
59 -65 0
-64 -65 0
-45 24 66 0
45 -66 0
-24 -66 0
66 46 67 0
-66 -67 0
-46 -67 0
65 67 68 0
-65 -68 0
-67 -68 0
-57 68 69 0
57 -69 0
-68 -69 0
-49 16 70 0
49 -70 0
-16 -70 0
70 50 71 0
-70 -71 0
-50 -71 0
69 71 72 0
-69 -72 0
-71 -72 0
55 -72 73 0
-55 -73 0
72 -73 0
-73 0
